16 965
525 7 504 7 362 7 209 9 25 11 818 15 619 21
525 7 504 7 362 7 209 9 25 11 818 15 619 21
529 7 485 7 272 7 90 9 798 11 593 18
529 7 485 7 272 7 90 9 798 11 593 18
525 7 477 7 390 7 241 9 75 14 911 18 756 25
525 7 477 7 390 7 241 9 75 14 911 18 756 25
520 7 441 7 261 7 60 9 922 11 761 18
525 7 445 7 264 7 63 9 889 11 721 18
530 7 454 10
525 7 505 7 381 7 218 9 50 11 850 15 664 21
532 7
532 7
532 7
532 7
525 7 504 7 362 7 209 9 25 11 818 15 624 21
525 7 504 7 362 7 209 9 25 11 818 15 624 21
